interdiction/MCDM/NO_CORR/GEN_FROM_60/15_ITEMS_1000_GEN/K5015W02.KNP.mps
NAME          BLANK   
ROWS
 N  OBJROW
 L  R0000000
COLUMNS
    C0000000  OBJROW     -402.         R0000000  999.        
    C0000001  OBJROW     -63.          R0000000  233.        
    C0000002  OBJROW     -163.         R0000000  496.        
    C0000003  OBJROW     -587.         R0000000  328.        
    C0000004  OBJROW     -286.         R0000000  369.        
    C0000005  OBJROW     -910.         R0000000  752.        
    C0000006  OBJROW     -47.          R0000000  507.        
    C0000007  OBJROW     -1.           R0000000  434.        
    C0000008  OBJROW     -202.         R0000000  985.        
    C0000009  OBJROW     -239.         R0000000  593.        
    C0000010  OBJROW     -390.         R0000000  169.        
    C0000011  OBJROW     -34.          R0000000  378.        
    C0000012  OBJROW     -433.         R0000000  969.        
    C0000013  OBJROW     -876.         R0000000  386.        
    C0000014  OBJROW     -936.         R0000000  824.        
RHS
    RHS       R0000000  14144.      
BOUNDS
 BV BOUND     C0000000  1.          
 BV BOUND     C0000001  1.          
 BV BOUND     C0000002  1.          
 BV BOUND     C0000003  1.          
 BV BOUND     C0000004  1.          
 BV BOUND     C0000005  1.          
 BV BOUND     C0000006  1.          
 BV BOUND     C0000007  1.          
 BV BOUND     C0000008  1.          
 BV BOUND     C0000009  1.          
 BV BOUND     C0000010  1.          
 BV BOUND     C0000011  1.          
 BV BOUND     C0000012  1.          
 BV BOUND     C0000013  1.          
 BV BOUND     C0000014  1.          
ENDATA
