data/MCDM/NO_CORR/GEN_FROM_60/15_ITEMS_1000_GEN/K5015W02.KNP.txt
N 15
M 16
LC 15
LC 16
LC 17
LC 18
LC 19
LC 20
LC 21
LC 22
LC 23
LC 24
LC 25
LC 26
LC 27
LC 28
LC 29
LR 1
LR 2
LR 3
LR 4
LR 5
LR 6
LR 7
LR 8
LR 9
LR 10
LR 11
LR 12
LR 13
LR 14
LR 15
LR 16
LO -402
LO -63
LO -163
LO -587
LO -286
LO -910
LO -47
LO -1
LO -202
LO -239
LO -390
LO -34
LO -433
LO -876
LO -936
OS 1
IC 855
IC 469
IC 94
IC 830
IC 243
IC 606
IC 948
IC 148
IC 62
IC 699
IC 866
IC 47
IC 508
IC 1000
IC 617
IB 3996
